c read Graph
c width = 348
c time = 474 ms
c width = 26
c time = 1242 ms
c width = 25
c time = 4361 ms
c width = 24
c time = 4607 ms
c width = 23
c time = 4964 ms
c width = 22
c time = 12828 ms
c width = 21
c time = 26322 ms
c width = 20
c time = 32560 ms
c width = 19
c time = 44913 ms
c width = 19
c time = 47248 ms
s td 309 20 361
b 1 1 2 20
b 2 2 3 20 21
b 3 17 18 37 38
b 4 3 20 21 39
b 5 17 37 38 57
b 6 305 324 325 344
b 7 323 341 342 360
b 8 305 325 344 345
b 9 323 341 359 360
b 10 3 4 5 23
b 11 3 5 22 23 40 58
b 12 5 22 23 40 42 58 60
b 13 5 23 40 42 58 60 78
b 14 5 23 42 58 60 78 96
b 15 5 23 25 42 43 60 78 96
b 16 5 25 42 43 60 62 78 80 96
b 17 5 25 43 60 62 78 80 96 98
b 18 5 25 43 62 78 80 96 98 116
b 19 5 25 43 45 62 63 80 96 98 116
b 20 5 25 45 62 63 80 83 96 98 102 116 118 120 138
b 21 62 63 80 83 98 100 102 118 120 138
b 22 62 63 80 82 83 100 102 120
b 23 82 100 101 102 120
b 24 62 80 81 82 100
b 25 100 118 119 120 138
b 26 80 98 99 100 118
b 27 5 25 45 63 65 83 96 98 102 116 118 120 138
b 28 45 63 64 65 83
b 29 5 25 45 65 83 96 98 102 116 118 120 138 156 172 174 192
b 30 96 98 116 118 136 138 156 172 174 192
b 31 98 116 117 118 136
b 32 96 116 136 154 156 172 174 192
b 33 136 154 155 156 174
b 34 96 116 134 136 154 172
b 35 96 115 116 134
b 36 116 134 135 136 154
b 37 134 153 154 172
b 38 154 172 173 174 192
b 39 118 136 137 138 156
b 40 5 13 25 33 45 51 65 69 83 87 102 105 120 122 123 138 156 172 174 192
b 41 13 33 51 69 87 102 105 120 122 123 138 142 156 158 160 172 174 178 192
b 42 102 120 122 138 140 142 158 160 178
b 43 102 120 121 122 140
b 44 120 138 139 140 158
b 45 122 140 141 142 160
b 46 140 158 159 160 178
b 47 13 33 51 69 87 105 123 138 142 156 158 160 172 174 178 192 196 212 214 232
b 48 138 142 156 158 160 172 174 178 192 196 212 214 232
b 49 138 156 158 174 176 178 192 196 212 214 232
b 50 158 176 177 178 196
b 51 156 174 176 192 194 196 212 214 232
b 52 176 194 195 196 214
b 53 174 192 193 194 212
b 54 194 212 213 214 232
b 55 156 174 175 176 194
b 56 138 156 157 158 176
b 57 13 33 51 69 87 89 105 108 123 125 126 142 160 172 178 192 196 212 214 232
b 58 13 33 51 69 89 105 108 123 125 126 142 143 160 172 178 192 196 212 214 232
b 59 13 33 51 69 89 108 125 126 142 143 144 160 162 172 178 192 196 212 214 232
b 60 13 33 51 69 89 108 126 142 144 160 162 172 178 180 192 196 212 214 232
b 61 13 33 51 69 89 108 126 144 160 162 172 178 180 192 196 198 212 214 232
b 62 160 178 179 180 198
b 63 13 33 51 69 89 108 126 144 162 172 178 180 192 196 198 212 214 216 232
b 64 13 33 51 69 71 89 108 126 144 162 172 180 192 196 198 212 214 216 232
b 65 13 33 51 52 71 89 108 126 144 162 172 180 192 196 198 212 214 216 232
b 66 13 33 52 53 71 89 108 126 144 162 172 180 192 196 198 212 214 216 232
b 67 13 15 33 53 71 89 108 126 144 162 172 180 192 196 198 212 214 216 232
b 68 13 14 15 33
b 69 15 17 33 35 53 71 89 108 126 144 162 172 180 192 196 198 212 214 216 232
b 70 17 35 36 53 54 71 89 108 126 144 162 172 180 192 196 198 212 214 216 232
b 71 17 36 53 54 71 72 89 108 126 144 162 172 180 192 196 198 212 214 216 232
b 72 17 36 54 71 72 89 90 108 126 144 162 172 180 192 196 198 212 214 216 232
b 73 17 36 54 56 72 76 90 108 126 144 162 172 180 192 196 198 212 214 216 232
b 74 36 54 55 56 72 76 90 108 126 144 162 172 180 192 196 198 212 214 216 232
b 75 54 55 56 72 74 76 90 108 126 144 162 172 180 192 196 198 212 214 216 232
b 76 54 56 72 74 76 90 92 108 126 144 162 172 180 192 196 198 212 214 216 232
b 77 56 72 74 76 90 92 94 108 126 144 162 172 180 192 196 198 212 214 216 232
b 78 72 74 76 90 92 94 108 110 126 144 162 172 180 192 196 198 212 214 216 232
b 79 74 76 90 92 93 94 108 110 126 144 162 172 180 192 196 198 212 214 216 232
b 80 76 90 92 93 94 108 110 112 126 144 162 172 180 192 196 198 212 214 216 232
b 81 76 90 92 94 95 108 110 112 126 144 162 172 180 192 196 198 212 214 216 232
b 82 90 92 94 95 108 110 112 126 128 144 162 172 180 192 196 198 212 214 216 232
b 83 92 94 95 108 110 111 112 126 128 144 162 172 180 192 196 198 212 214 216 232
b 84 94 95 108 110 111 112 113 126 128 144 162 172 180 192 196 198 212 214 216 232
b 85 95 108 110 111 112 113 114 126 128 144 162 172 180 192 196 198 212 214 216 232
b 86 108 110 111 112 113 114 126 127 128 144 162 172 180 192 196 198 212 214 216 232
b 87 110 111 112 113 114 126 127 128 129 144 162 172 180 192 196 198 212 214 216 232
b 88 111 112 113 114 126 127 128 129 130 144 162 172 180 192 196 198 212 214 216 232
b 89 112 113 114 126 127 128 129 130 131 144 162 172 180 192 196 198 212 214 216 232
b 90 113 114 126 127 128 129 130 131 132 144 162 172 180 192 196 198 212 214 216 232
b 91 114 126 127 128 129 130 131 132 133 144 162 172 180 192 196 198 212 214 216 232
b 92 126 127 128 129 130 131 132 133 144 145 162 172 180 192 196 198 212 214 216 232
b 93 127 128 129 130 131 132 133 144 145 146 162 172 180 192 196 198 212 214 216 232
b 94 128 129 130 131 132 133 144 145 146 147 162 172 180 192 196 198 212 214 216 232
b 95 129 130 131 132 133 144 145 146 147 148 162 172 180 192 196 198 212 214 216 232
b 96 130 131 132 133 144 145 146 147 148 149 162 172 180 192 196 198 212 214 216 232
b 97 131 132 133 144 145 146 147 148 149 150 162 172 180 192 196 198 212 214 216 232
b 98 132 133 144 145 146 147 148 149 150 151 162 172 180 192 196 198 212 214 216 232
b 99 133 144 145 146 147 148 149 150 151 152 162 172 180 192 196 198 212 214 216 232
b 100 144 145 146 147 148 149 150 151 152 162 163 172 180 192 196 198 212 214 216 232
b 101 145 146 147 148 149 150 151 152 162 163 164 172 180 192 196 198 212 214 216 232
b 102 146 147 148 149 150 151 152 162 163 164 165 172 180 192 196 198 212 214 216 232
b 103 147 148 149 150 151 152 162 163 164 165 166 172 180 192 196 198 212 214 216 232
b 104 148 149 150 151 152 162 163 164 165 166 168 172 180 192 196 198 212 214 216 232
b 105 148 150 151 152 162 163 164 165 166 168 169 172 180 192 196 198 212 214 216 232
b 106 148 151 152 162 163 164 165 166 168 169 170 172 180 192 196 198 212 214 216 232
b 107 148 152 162 163 164 165 166 168 169 170 172 180 181 192 196 198 212 214 216 232
b 108 148 152 163 164 165 166 168 169 170 172 180 181 182 192 196 198 212 214 216 232
b 109 148 152 164 165 166 168 169 170 172 180 181 182 183 192 196 198 212 214 216 232
b 110 148 152 165 166 168 169 170 172 180 181 182 183 184 192 196 198 212 214 216 232
b 111 148 152 166 168 169 170 172 180 181 182 183 184 188 192 196 198 212 214 216 232
b 112 148 152 166 168 170 172 180 181 182 183 184 188 192 196 198 210 212 214 216 232
b 113 148 152 166 168 170 180 181 182 183 184 188 192 196 198 199 210 212 214 216 232
b 114 148 152 166 168 170 181 182 183 184 188 192 196 198 199 200 210 212 214 216 232
b 115 148 152 166 168 170 182 183 184 188 192 196 198 199 200 201 210 212 214 216 232
b 116 148 152 166 168 170 183 184 188 192 196 198 199 200 201 202 210 212 214 216 232
b 117 148 152 166 168 170 184 188 192 196 198 199 200 201 202 210 212 214 216 230 232
b 118 148 152 166 168 170 184 188 196 198 199 200 201 202 210 212 214 216 230 232 234
b 119 148 152 166 168 170 184 188 198 199 200 201 202 210 212 214 216 217 230 232 234
b 120 148 152 166 168 170 184 188 199 200 201 202 210 212 214 216 217 218 230 232 234
b 121 148 152 166 168 170 184 188 200 201 202 210 212 214 216 217 218 219 230 232 234
b 122 148 152 166 168 170 184 188 201 202 210 212 214 216 217 218 219 220 230 232 234
b 123 148 152 166 168 170 184 188 202 210 212 214 216 217 218 219 220 230 232 234 248
b 124 148 152 166 168 170 184 188 202 212 214 216 217 218 219 220 230 232 234 236 248
b 125 148 152 166 168 170 184 188 202 212 214 216 218 219 220 230 232 234 236 238 248
b 126 148 152 166 168 170 184 188 202 212 214 216 218 220 230 232 234 236 238 248 256
b 127 218 236 237 238 256
b 128 148 152 166 168 170 184 188 202 212 214 216 220 230 232 234 236 238 248 250 256
b 129 148 152 166 168 170 184 188 202 214 216 220 230 232 234 236 238 248 250 252 256
b 130 148 152 166 168 170 184 188 202 216 220 230 232 234 236 238 248 250 252 254 256
b 131 148 152 166 168 170 184 188 202 220 230 232 234 236 238 248 249 250 252 254 256
b 132 148 152 166 168 170 184 188 202 220 232 234 236 238 248 249 250 251 252 254 256
b 133 148 152 166 168 170 184 188 202 220 234 236 238 248 249 250 251 252 254 256 272
b 134 148 152 166 168 170 184 188 202 220 236 238 248 249 250 251 252 254 255 256 272
b 135 148 152 166 168 170 184 188 202 220 238 248 249 250 251 252 254 255 256 268 272
b 136 148 152 166 168 170 184 188 202 220 238 248 250 251 252 254 255 256 268 270 272
b 137 148 152 166 168 170 184 188 202 220 238 248 250 252 254 255 256 268 270 272 290
b 138 148 152 166 168 170 184 188 202 220 238 248 250 254 255 256 268 270 272 274 290
b 139 148 152 166 168 170 184 188 202 220 238 248 250 254 256 268 270 272 274 290 292
b 140 254 272 273 274 292
b 141 148 152 166 168 170 184 188 202 220 238 248 250 256 268 270 272 274 288 290 292
b 142 148 152 166 168 170 184 188 202 220 238 248 256 268 270 272 274 288 290 292 308
b 143 148 152 166 168 170 184 188 202 220 238 248 256 268 272 274 288 290 292 308 310
b 144 148 152 166 168 170 184 188 202 220 238 248 256 268 274 288 290 292 308 310 328
b 145 148 152 166 168 170 184 188 202 220 238 248 256 268 274 288 292 308 310 328 346
b 146 148 152 166 168 170 184 188 202 220 238 256 274 292 308 310 312 328 332 346 352
b 147 292 308 310 312 328 332 346 348 352
b 148 292 310 312 328 330 332 348 352
b 149 292 310 311 312 330
b 150 310 328 329 330 348
b 151 312 330 332 348 350 352
b 152 332 350 351 352
b 153 330 348 349 350
b 154 312 330 331 332 350
b 155 328 346 347 348
b 156 248 268 286 288 308 328 346
b 157 248 267 268 286
b 158 268 286 288 308 326 328 346
b 159 308 326 327 328 346
b 160 268 286 288 306 308 326 346
b 161 286 306 326 345 346
b 162 286 305 306 326 345
b 163 305 306 325 326 345
b 164 268 286 287 288 306
b 165 288 306 307 308 326
b 166 290 308 309 310 328
b 167 272 290 291 292 310
b 168 270 288 289 290 308
b 169 250 268 269 270 288
b 170 252 270 271 272 290
b 171 234 252 253 254 272
b 172 216 234 235 236 254
b 173 214 232 233 234 252
b 174 212 230 231 232 250
b 175 210 229 230 248
b 176 196 214 215 216 234
b 177 192 210 211 212 230
b 178 172 191 192 210
b 179 90 108 109 110 128
b 180 72 90 91 92 110
b 181 56 74 75 76 94
b 182 54 72 73 74 92
b 183 17 36 56 57 76
b 184 17 36 37 56 57
b 185 15 16 17 35
b 186 15 33 34 35 53
b 187 51 69 70 71 89
b 188 178 196 197 198 216
b 189 142 160 161 162 180
b 190 105 123 124 125 143
b 191 69 87 89 105 107 108 125 126
b 192 69 87 88 89 107
b 193 87 105 106 107 125
b 194 5 13 25 33 45 51 65 69 83 85 87 102 105 122 123
b 195 65 83 85 102 103 105 122 123
b 196 65 83 84 85 103
b 197 85 103 104 105 123
b 198 5 9 13 25 29 33 45 49 51 65 69 85 87 105
b 199 9 13 29 31 33 49 51 69
b 200 9 11 13 29 31 49
b 201 9 10 11 29
b 202 11 29 30 31 49
b 203 11 12 13 31
b 204 13 31 32 33 51
b 205 31 49 50 51 69
b 206 5 9 25 29 45 47 49 65 69 85 87 105
b 207 5 9 25 27 29 45 47 65
b 208 9 27 28 29 47
b 209 27 45 46 47 65
b 210 5 7 9 25 27 45
b 211 7 25 26 27 45
b 212 7 8 9 27
b 213 5 6 7 25
b 214 29 47 49 65 67 69 85 87 105
b 215 49 67 68 69 87
b 216 29 47 48 49 67
b 217 47 65 66 67 85
b 218 67 85 86 87 105
b 219 25 43 44 45 63
b 220 78 96 97 98 116
b 221 60 78 79 80 98
b 222 42 60 61 62 80
b 223 5 23 24 25 43
b 224 58 77 78 96
b 225 40 58 59 60 78
b 226 22 40 41 42 60
b 227 3 22 39 40 58
b 228 3 21 22 39 40
b 229 222 240 241 242 260
b 230 238 256 257 258 276
b 231 220 238 239 240 258
b 232 240 258 259 260 278
b 233 148 166 168 184 186 188 204 206 224
b 234 148 166 168 184 188 202 204 206 222 224 242
b 235 238 256 258 274 276 278 292 296 312 314 332
b 236 202 220 222 238 240 242 258 260 278
b 237 148 166 168 184 188 202 206 220 222 224 238 242 258 260 278
b 238 148 152 166 168 170 184 188 202 206 220 224 238 242 258 260 278 296 314 332 352
b 239 148 152 166 168 170 184 188 202 220 238 256 258 274 278 292 296 312 314 332 352
b 240 148 152 166 168 170 184 188 202 220 238 258 274 278 292 296 312 314 332 352
b 241 152 170 188 206 224 242 260 278 280 296 300 314 318 332 336 352 356
b 242 152 170 188 206 224 228 242 244 246 260 264 280 300 318 336 356
b 243 152 170 188 206 224 226 228 244 246 264
b 244 152 170 188 206 208 226 228 246
b 245 188 206 207 208 226
b 246 208 226 227 228 246
b 247 152 170 188 190 208 228
b 248 190 208 209 228
b 249 170 188 189 190 208
b 250 152 170 171 190
b 251 226 244 245 246 264
b 252 206 224 225 226 244
b 253 224 228 242 244 246 260 264 280 282 300 318 336 356
b 254 228 246 264 282 284 300 304 318 336 356
b 255 264 282 284 300 304 318 336 338 356
b 256 264 282 284 300 304 318 320 338 356
b 257 264 282 284 300 302 304 320 338 356
b 258 284 302 304 320 338 356 358
b 259 284 302 304 320 338 340 358
b 260 284 302 304 320 322 340 358
b 261 284 302 303 304 322
b 262 302 320 321 322 340
b 263 304 322 340 358 359
b 264 304 322 323 340 359
b 265 322 323 340 341 359
b 266 320 338 339 340 358
b 267 338 356 357 358
b 268 264 282 283 284 302
b 269 282 300 301 302 320
b 270 300 318 319 320 338
b 271 318 336 337 338 356
b 272 228 246 264 266 284 304
b 273 266 284 285 304
b 274 228 246 247 266
b 275 246 264 265 266 284
b 276 224 242 244 260 262 264 280 282 300
b 277 262 280 281 282 300
b 278 242 260 261 262 280
b 279 224 242 243 244 262
b 280 244 262 263 264 282
b 281 260 278 280 296 300 314 316 318 332 336 352 356
b 282 296 314 316 332 334 336 352 356
b 283 296 314 315 316 334
b 284 316 334 336 352 354 356
b 285 334 352 353 354
b 286 336 354 355 356
b 287 316 334 335 336 354
b 288 314 332 333 334 352
b 289 260 278 280 296 298 300 316 318 336
b 290 298 316 317 318 336
b 291 278 296 297 298 316
b 292 280 298 299 300 318
b 293 260 278 279 280 298
b 294 256 274 276 292 294 296 312 314 332
b 295 276 294 295 296 314
b 296 274 292 293 294 312
b 297 256 274 275 276 294
b 298 294 312 313 314 332
b 299 258 276 277 278 296
b 300 166 184 185 186 204
b 301 168 186 187 188 206
b 302 186 204 205 206 224
b 303 148 166 167 168 186
b 304 204 222 223 224 242
b 305 184 202 203 204 222
b 306 202 220 221 222 240
b 307 342 360 361
b 308 324 343 344
b 309 18 19 38
1 2
2 4
3 309
3 5
4 228
5 184
6 308
6 8
7 307
7 9
8 163
9 265
10 11
11 227
11 12
12 226
12 13
13 225
13 14
14 224
14 15
15 223
15 16
16 222
16 17
17 221
17 18
18 220
18 19
19 219
19 20
20 27
20 21
21 26
21 25
21 22
22 24
22 23
27 29
27 28
29 40
29 30
30 31
30 32
30 39
32 38
32 33
32 34
34 35
34 37
34 36
40 194
40 41
41 47
41 42
42 44
42 45
42 46
42 43
47 57
47 49
47 48
49 56
49 50
49 51
51 54
51 55
51 53
51 52
57 191
57 58
58 190
58 59
59 60
60 189
60 61
61 63
61 62
63 188
63 64
64 187
64 65
65 66
66 67
67 69
67 68
69 185
69 186
69 70
70 71
71 72
72 73
73 183
73 74
74 75
75 76
76 182
76 77
77 181
77 78
78 180
78 79
79 80
80 81
81 82
82 179
82 83
83 84
84 85
85 86
86 87
87 88
88 89
89 90
90 91
91 92
92 93
93 94
94 95
95 96
96 97
97 98
98 99
99 100
100 101
101 102
102 103
103 104
104 105
105 106
106 107
107 108
108 109
109 110
110 111
111 112
112 178
112 113
113 114
114 115
115 116
116 117
117 177
117 118
118 176
118 119
119 120
120 121
121 122
122 123
123 175
123 124
124 125
125 126
126 128
126 127
128 174
128 129
129 173
129 130
130 172
130 131
131 132
132 133
133 171
133 134
134 135
135 136
136 137
137 170
137 138
138 139
139 141
139 140
141 169
141 142
142 168
142 143
143 167
143 144
144 166
144 145
145 156
145 146
146 239
146 147
147 155
147 148
148 150
148 151
148 149
151 154
151 152
151 153
156 157
156 158
158 159
158 160
160 161
160 164
160 165
161 162
162 163
183 184
191 193
191 192
194 198
194 195
195 196
195 197
198 199
198 206
199 204
199 205
199 200
200 201
200 203
200 202
206 207
206 214
207 208
207 209
207 210
210 213
210 212
210 211
214 216
214 217
214 215
214 218
227 228
229 236
230 235
231 236
232 236
233 301
233 302
233 303
233 300
233 234
234 304
234 305
234 237
235 294
235 299
235 239
236 306
236 237
237 238
238 241
238 240
239 240
241 281
241 242
242 243
242 253
243 251
243 252
243 244
244 246
244 247
244 245
247 250
247 248
247 249
253 254
253 276
254 272
254 255
255 271
255 256
256 270
256 257
257 268
257 269
257 258
258 267
258 259
259 266
259 260
260 263
260 261
260 262
263 264
264 265
272 274
272 273
272 275
276 280
276 279
276 278
276 277
281 282
281 289
282 288
282 283
282 284
284 285
284 286
284 287
289 291
289 292
289 293
289 290
294 295
294 296
294 297
294 298
